NAME          
ROWS
 N  OBJ
 L  c1
COLUMNS
    MARKER    'MARKER'                 'INTORG'
    x[1]      c1        591
    x[1]      OBJ       -714
    x[2]      c1        483
    x[2]      OBJ       -127
    x[3]      c1        245
    x[3]      OBJ       -19
    x[4]      c1        272
    x[4]      OBJ       -32
    x[5]      c1        292
    x[5]      OBJ       -935
    x[6]      c1        136
    x[6]      OBJ       -951
    x[7]      c1        132
    x[7]      OBJ       -54
    x[8]      c1        215
    x[8]      OBJ       -272
    x[9]      c1        32
    x[9]      OBJ       -495
    x[10]     c1        981
    x[10]     OBJ       -226
    x[11]     c1        481
    x[11]     OBJ       -520
    x[12]     c1        464
    x[12]     OBJ       -245
    x[13]     c1        214
    x[13]     OBJ       -883
    x[14]     c1        776
    x[14]     OBJ       -955
    x[15]     c1        620
    x[15]     OBJ       -632
    x[16]     c1        635
    x[16]     OBJ       -524
    x[17]     c1        387
    x[17]     OBJ       -915
    x[18]     c1        932
    x[18]     OBJ       -19
    x[19]     c1        908
    x[19]     OBJ       -350
    x[20]     c1        251
    x[20]     OBJ       -840
    x[21]     c1        877
    x[21]     OBJ       -953
    x[22]     c1        755
    x[22]     OBJ       -371
    x[23]     c1        51
    x[23]     OBJ       -759
    x[24]     c1        918
    x[24]     OBJ       -542
    x[25]     c1        512
    x[25]     OBJ       -24
    x[26]     c1        90
    x[26]     OBJ       -742
    x[27]     c1        92
    x[27]     OBJ       -842
    x[28]     c1        678
    x[28]     OBJ       -593
    x[29]     c1        830
    x[29]     OBJ       -523
    x[30]     c1        410
    x[30]     OBJ       -974
    x[31]     c1        949
    x[31]     OBJ       -933
    x[32]     c1        499
    x[32]     OBJ       -55
    x[33]     c1        205
    x[33]     OBJ       -685
    x[34]     c1        708
    x[34]     OBJ       -56
    x[35]     c1        253
    x[35]     OBJ       -547
    x[36]     c1        980
    x[36]     OBJ       -888
    x[37]     c1        730
    x[37]     OBJ       -100
    x[38]     c1        750
    x[38]     OBJ       -927
    x[39]     c1        879
    x[39]     OBJ       -595
    x[40]     c1        56
    x[40]     OBJ       -754
    x[41]     c1        993
    x[41]     OBJ       -132
    x[42]     c1        241
    x[42]     OBJ       -545
    x[43]     c1        736
    x[43]     OBJ       -649
    x[44]     c1        37
    x[44]     OBJ       -291
    x[45]     c1        188
    x[45]     OBJ       -330
    x[46]     c1        983
    x[46]     OBJ       -343
    x[47]     c1        9
    x[47]     OBJ       -172
    x[48]     c1        766
    x[48]     OBJ       -396
    x[49]     c1        534
    x[49]     OBJ       -166
    x[50]     c1        206
    x[50]     OBJ       -520
    x[51]     c1        111
    x[51]     OBJ       -292
    x[52]     c1        44
    x[52]     OBJ       -755
    x[53]     c1        999
    x[53]     OBJ       -120
    x[54]     c1        629
    x[54]     OBJ       -425
    x[55]     c1        787
    x[55]     OBJ       -656
    x[56]     c1        359
    x[56]     OBJ       -671
    x[57]     c1        716
    x[57]     OBJ       -456
    x[58]     c1        260
    x[58]     OBJ       -748
    x[59]     c1        461
    x[59]     OBJ       -868
    x[60]     c1        381
    x[60]     OBJ       -344
    x[61]     c1        963
    x[61]     OBJ       -2
    x[62]     c1        365
    x[62]     OBJ       -640
    x[63]     c1        159
    x[63]     OBJ       -171
    x[64]     c1        365
    x[64]     OBJ       -127
    x[65]     c1        600
    x[65]     OBJ       -411
    x[66]     c1        232
    x[66]     OBJ       -781
    x[67]     c1        700
    x[67]     OBJ       -810
    x[68]     c1        420
    x[68]     OBJ       -864
    x[69]     c1        290
    x[69]     OBJ       -68
    x[70]     c1        888
    x[70]     OBJ       -947
    x[71]     c1        222
    x[71]     OBJ       -114
    x[72]     c1        43
    x[72]     OBJ       -80
    x[73]     c1        460
    x[73]     OBJ       -899
    x[74]     c1        107
    x[74]     OBJ       -519
    x[75]     c1        711
    x[75]     OBJ       -89
RHS
    rhs       c1        18117
RANGES
BOUNDS
 LO bounds    x[1]      0
 PL bounds    x[1]
 LO bounds    x[2]      0
 PL bounds    x[2]
 LO bounds    x[3]      0
 PL bounds    x[3]
 LO bounds    x[4]      0
 PL bounds    x[4]
 LO bounds    x[5]      0
 PL bounds    x[5]
 LO bounds    x[6]      0
 PL bounds    x[6]
 LO bounds    x[7]      0
 PL bounds    x[7]
 LO bounds    x[8]      0
 PL bounds    x[8]
 LO bounds    x[9]      0
 PL bounds    x[9]
 LO bounds    x[10]     0
 PL bounds    x[10]
 LO bounds    x[11]     0
 PL bounds    x[11]
 LO bounds    x[12]     0
 PL bounds    x[12]
 LO bounds    x[13]     0
 PL bounds    x[13]
 LO bounds    x[14]     0
 PL bounds    x[14]
 LO bounds    x[15]     0
 PL bounds    x[15]
 LO bounds    x[16]     0
 PL bounds    x[16]
 LO bounds    x[17]     0
 PL bounds    x[17]
 LO bounds    x[18]     0
 PL bounds    x[18]
 LO bounds    x[19]     0
 PL bounds    x[19]
 LO bounds    x[20]     0
 PL bounds    x[20]
 LO bounds    x[21]     0
 PL bounds    x[21]
 LO bounds    x[22]     0
 PL bounds    x[22]
 LO bounds    x[23]     0
 PL bounds    x[23]
 LO bounds    x[24]     0
 PL bounds    x[24]
 LO bounds    x[25]     0
 PL bounds    x[25]
 LO bounds    x[26]     0
 PL bounds    x[26]
 LO bounds    x[27]     0
 PL bounds    x[27]
 LO bounds    x[28]     0
 PL bounds    x[28]
 LO bounds    x[29]     0
 PL bounds    x[29]
 LO bounds    x[30]     0
 PL bounds    x[30]
 LO bounds    x[31]     0
 PL bounds    x[31]
 LO bounds    x[32]     0
 PL bounds    x[32]
 LO bounds    x[33]     0
 PL bounds    x[33]
 LO bounds    x[34]     0
 PL bounds    x[34]
 LO bounds    x[35]     0
 PL bounds    x[35]
 LO bounds    x[36]     0
 PL bounds    x[36]
 LO bounds    x[37]     0
 PL bounds    x[37]
 LO bounds    x[38]     0
 PL bounds    x[38]
 LO bounds    x[39]     0
 PL bounds    x[39]
 LO bounds    x[40]     0
 PL bounds    x[40]
 LO bounds    x[41]     0
 PL bounds    x[41]
 LO bounds    x[42]     0
 PL bounds    x[42]
 LO bounds    x[43]     0
 PL bounds    x[43]
 LO bounds    x[44]     0
 PL bounds    x[44]
 LO bounds    x[45]     0
 PL bounds    x[45]
 LO bounds    x[46]     0
 PL bounds    x[46]
 LO bounds    x[47]     0
 PL bounds    x[47]
 LO bounds    x[48]     0
 PL bounds    x[48]
 LO bounds    x[49]     0
 PL bounds    x[49]
 LO bounds    x[50]     0
 PL bounds    x[50]
 LO bounds    x[51]     0
 PL bounds    x[51]
 LO bounds    x[52]     0
 PL bounds    x[52]
 LO bounds    x[53]     0
 PL bounds    x[53]
 LO bounds    x[54]     0
 PL bounds    x[54]
 LO bounds    x[55]     0
 PL bounds    x[55]
 LO bounds    x[56]     0
 PL bounds    x[56]
 LO bounds    x[57]     0
 PL bounds    x[57]
 LO bounds    x[58]     0
 PL bounds    x[58]
 LO bounds    x[59]     0
 PL bounds    x[59]
 LO bounds    x[60]     0
 PL bounds    x[60]
 LO bounds    x[61]     0
 PL bounds    x[61]
 LO bounds    x[62]     0
 PL bounds    x[62]
 LO bounds    x[63]     0
 PL bounds    x[63]
 LO bounds    x[64]     0
 PL bounds    x[64]
 LO bounds    x[65]     0
 PL bounds    x[65]
 LO bounds    x[66]     0
 PL bounds    x[66]
 LO bounds    x[67]     0
 PL bounds    x[67]
 LO bounds    x[68]     0
 PL bounds    x[68]
 LO bounds    x[69]     0
 PL bounds    x[69]
 LO bounds    x[70]     0
 PL bounds    x[70]
 LO bounds    x[71]     0
 PL bounds    x[71]
 LO bounds    x[72]     0
 PL bounds    x[72]
 LO bounds    x[73]     0
 PL bounds    x[73]
 LO bounds    x[74]     0
 PL bounds    x[74]
 LO bounds    x[75]     0
 PL bounds    x[75]
ENDATA
